c CNF file written by RustSAT
p cnf 241 2668
1 0
-3 -2 0
-4 -2 0
-4 -3 0
-5 -2 0
-5 -3 0
-5 -4 0
-6 -2 0
-6 -3 0
-6 -4 0
-6 -5 0
-7 -2 0
-7 -3 0
-7 -4 0
-7 -5 0
-7 -6 0
2 3 4 5 6 7 0
-9 -8 0
-10 -8 0
-10 -9 0
-11 -8 0
-11 -9 0
-11 -10 0
-12 -8 0
-12 -9 0
-12 -10 0
-12 -11 0
-13 -8 0
-13 -9 0
-13 -10 0
-13 -11 0
-13 -12 0
-14 -8 0
-14 -9 0
-14 -10 0
-14 -11 0
-14 -12 0
-14 -13 0
-15 -8 0
-15 -9 0
-15 -10 0
-15 -11 0
-15 -12 0
-15 -13 0
-15 -14 0
8 9 10 11 12 13 14 15 0
-17 -16 0
-18 -16 0
-18 -17 0
-19 -16 0
-19 -17 0
-19 -18 0
-20 -16 0
-20 -17 0
-20 -18 0
-20 -19 0
-21 -16 0
-21 -17 0
-21 -18 0
-21 -19 0
-21 -20 0
-22 -16 0
-22 -17 0
-22 -18 0
-22 -19 0
-22 -20 0
-22 -21 0
-23 -16 0
-23 -17 0
-23 -18 0
-23 -19 0
-23 -20 0
-23 -21 0
-23 -22 0
16 17 18 19 20 21 22 23 0
-25 -24 0
-26 -24 0
-26 -25 0
-27 -24 0
-27 -25 0
-27 -26 0
-28 -24 0
-28 -25 0
-28 -26 0
-28 -27 0
-29 -24 0
-29 -25 0
-29 -26 0
-29 -27 0
-29 -28 0
24 25 26 27 28 29 0
-31 -30 0
-32 -30 0
-32 -31 0
-33 -30 0
-33 -31 0
-33 -32 0
-34 -30 0
-34 -31 0
-34 -32 0
-34 -33 0
-35 -30 0
-35 -31 0
-35 -32 0
-35 -33 0
-35 -34 0
-36 -30 0
-36 -31 0
-36 -32 0
-36 -33 0
-36 -34 0
-36 -35 0
-37 -30 0
-37 -31 0
-37 -32 0
-37 -33 0
-37 -34 0
-37 -35 0
-37 -36 0
30 31 32 33 34 35 36 37 0
-39 -38 0
-40 -38 0
-40 -39 0
-41 -38 0
-41 -39 0
-41 -40 0
-42 -38 0
-42 -39 0
-42 -40 0
-42 -41 0
-43 -38 0
-43 -39 0
-43 -40 0
-43 -41 0
-43 -42 0
-44 -38 0
-44 -39 0
-44 -40 0
-44 -41 0
-44 -42 0
-44 -43 0
-45 -38 0
-45 -39 0
-45 -40 0
-45 -41 0
-45 -42 0
-45 -43 0
-45 -44 0
38 39 40 41 42 43 44 45 0
-47 -46 0
-48 -46 0
-48 -47 0
-49 -46 0
-49 -47 0
-49 -48 0
-50 -46 0
-50 -47 0
-50 -48 0
-50 -49 0
-51 -46 0
-51 -47 0
-51 -48 0
-51 -49 0
-51 -50 0
46 47 48 49 50 51 0
-53 -52 0
-54 -52 0
-54 -53 0
-55 -52 0
-55 -53 0
-55 -54 0
-56 -52 0
-56 -53 0
-56 -54 0
-56 -55 0
-57 -52 0
-57 -53 0
-57 -54 0
-57 -55 0
-57 -56 0
-58 -52 0
-58 -53 0
-58 -54 0
-58 -55 0
-58 -56 0
-58 -57 0
-59 -52 0
-59 -53 0
-59 -54 0
-59 -55 0
-59 -56 0
-59 -57 0
-59 -58 0
52 53 54 55 56 57 58 59 0
-61 -60 0
-62 -60 0
-62 -61 0
-63 -60 0
-63 -61 0
-63 -62 0
-64 -60 0
-64 -61 0
-64 -62 0
-64 -63 0
-65 -60 0
-65 -61 0
-65 -62 0
-65 -63 0
-65 -64 0
-66 -60 0
-66 -61 0
-66 -62 0
-66 -63 0
-66 -64 0
-66 -65 0
-67 -60 0
-67 -61 0
-67 -62 0
-67 -63 0
-67 -64 0
-67 -65 0
-67 -66 0
60 61 62 63 64 65 66 67 0
-69 -68 0
-70 -68 0
-70 -69 0
-71 -68 0
-71 -69 0
-71 -70 0
-72 -68 0
-72 -69 0
-72 -70 0
-72 -71 0
-73 -68 0
-73 -69 0
-73 -70 0
-73 -71 0
-73 -72 0
68 69 70 71 72 73 0
-75 -74 0
-76 -74 0
-76 -75 0
-77 -74 0
-77 -75 0
-77 -76 0
-78 -74 0
-78 -75 0
-78 -76 0
-78 -77 0
-79 -74 0
-79 -75 0
-79 -76 0
-79 -77 0
-79 -78 0
-80 -74 0
-80 -75 0
-80 -76 0
-80 -77 0
-80 -78 0
-80 -79 0
-81 -74 0
-81 -75 0
-81 -76 0
-81 -77 0
-81 -78 0
-81 -79 0
-81 -80 0
74 75 76 77 78 79 80 81 0
-83 -82 0
-84 -82 0
-84 -83 0
-85 -82 0
-85 -83 0
-85 -84 0
-86 -82 0
-86 -83 0
-86 -84 0
-86 -85 0
-87 -82 0
-87 -83 0
-87 -84 0
-87 -85 0
-87 -86 0
-88 -82 0
-88 -83 0
-88 -84 0
-88 -85 0
-88 -86 0
-88 -87 0
-89 -82 0
-89 -83 0
-89 -84 0
-89 -85 0
-89 -86 0
-89 -87 0
-89 -88 0
82 83 84 85 86 87 88 89 0
-91 -90 0
-92 -90 0
-92 -91 0
-93 -90 0
-93 -91 0
-93 -92 0
-94 -90 0
-94 -91 0
-94 -92 0
-94 -93 0
-95 -90 0
-95 -91 0
-95 -92 0
-95 -93 0
-95 -94 0
90 91 92 93 94 95 0
-97 -96 0
-98 -96 0
-98 -97 0
-99 -96 0
-99 -97 0
-99 -98 0
-100 -96 0
-100 -97 0
-100 -98 0
-100 -99 0
-101 -96 0
-101 -97 0
-101 -98 0
-101 -99 0
-101 -100 0
-102 -96 0
-102 -97 0
-102 -98 0
-102 -99 0
-102 -100 0
-102 -101 0
-103 -96 0
-103 -97 0
-103 -98 0
-103 -99 0
-103 -100 0
-103 -101 0
-103 -102 0
96 97 98 99 100 101 102 103 0
-105 -104 0
-106 -104 0
-106 -105 0
-107 -104 0
-107 -105 0
-107 -106 0
-108 -104 0
-108 -105 0
-108 -106 0
-108 -107 0
-109 -104 0
-109 -105 0
-109 -106 0
-109 -107 0
-109 -108 0
-110 -104 0
-110 -105 0
-110 -106 0
-110 -107 0
-110 -108 0
-110 -109 0
-111 -104 0
-111 -105 0
-111 -106 0
-111 -107 0
-111 -108 0
-111 -109 0
-111 -110 0
104 105 106 107 108 109 110 111 0
-113 -112 0
-114 -112 0
-114 -113 0
-115 -112 0
-115 -113 0
-115 -114 0
-116 -112 0
-116 -113 0
-116 -114 0
-116 -115 0
112 113 114 115 116 0
-118 -117 0
-119 -117 0
-119 -118 0
-120 -117 0
-120 -118 0
-120 -119 0
-121 -117 0
-121 -118 0
-121 -119 0
-121 -120 0
117 118 119 120 121 0
-2 127 -122 0
-2 128 -122 0
-2 -127 -128 122 0
-3 -127 122 0
-3 -128 122 0
-3 127 128 -122 0
-4 -127 -128 -122 0
-4 -127 128 122 0
-4 127 -128 122 0
-4 127 128 -122 0
-5 127 122 0
-5 128 122 0
-5 -127 -128 -122 0
-6 -127 -122 0
-6 -128 -122 0
-6 127 128 122 0
-7 -127 -128 122 0
-7 -127 128 -122 0
-7 127 -128 -122 0
-7 127 128 122 0
-8 1 127 0
-8 -1 -127 0
-9 1 127 0
-9 -1 -127 0
-10 1 127 0
-10 -1 -127 0
-11 -122 127 0
-11 122 -127 0
-12 -123 127 0
-12 123 -127 0
-13 -124 127 0
-13 124 -127 0
-14 -125 127 0
-14 125 -127 0
-15 -126 127 0
-15 126 -127 0
-16 1 128 0
-16 -1 -128 0
-17 1 128 0
-17 -1 -128 0
-18 1 128 0
-18 -1 -128 0
-19 -122 128 0
-19 122 -128 0
-20 -123 128 0
-20 123 -128 0
-21 -124 128 0
-21 124 -128 0
-22 -125 128 0
-22 125 -128 0
-23 -126 128 0
-23 126 -128 0
-112 1 122 0
-112 -1 -122 0
-117 1 122 0
-117 -1 -122 0
-24 129 -123 0
-24 130 -123 0
-24 -129 -130 123 0
-25 -129 123 0
-25 -130 123 0
-25 129 130 -123 0
-26 -129 -130 -123 0
-26 -129 130 123 0
-26 129 -130 123 0
-26 129 130 -123 0
-27 129 123 0
-27 130 123 0
-27 -129 -130 -123 0
-28 -129 -123 0
-28 -130 -123 0
-28 129 130 123 0
-29 -129 -130 123 0
-29 -129 130 -123 0
-29 129 -130 -123 0
-29 129 130 123 0
-30 1 129 0
-30 -1 -129 0
-31 1 129 0
-31 -1 -129 0
-32 1 129 0
-32 -1 -129 0
-33 -122 129 0
-33 122 -129 0
-34 -123 129 0
-34 123 -129 0
-35 -124 129 0
-35 124 -129 0
-36 -125 129 0
-36 125 -129 0
-37 -126 129 0
-37 126 -129 0
-38 1 130 0
-38 -1 -130 0
-39 1 130 0
-39 -1 -130 0
-40 1 130 0
-40 -1 -130 0
-41 -122 130 0
-41 122 -130 0
-42 -123 130 0
-42 123 -130 0
-43 -124 130 0
-43 124 -130 0
-44 -125 130 0
-44 125 -130 0
-45 -126 130 0
-45 126 -130 0
-113 1 123 0
-113 -1 -123 0
-118 1 123 0
-118 -1 -123 0
-46 131 -124 0
-46 132 -124 0
-46 -131 -132 124 0
-47 -131 124 0
-47 -132 124 0
-47 131 132 -124 0
-48 -131 -132 -124 0
-48 -131 132 124 0
-48 131 -132 124 0
-48 131 132 -124 0
-49 131 124 0
-49 132 124 0
-49 -131 -132 -124 0
-50 -131 -124 0
-50 -132 -124 0
-50 131 132 124 0
-51 -131 -132 124 0
-51 -131 132 -124 0
-51 131 -132 -124 0
-51 131 132 124 0
-52 1 131 0
-52 -1 -131 0
-53 1 131 0
-53 -1 -131 0
-54 1 131 0
-54 -1 -131 0
-55 -122 131 0
-55 122 -131 0
-56 -123 131 0
-56 123 -131 0
-57 -124 131 0
-57 124 -131 0
-58 -125 131 0
-58 125 -131 0
-59 -126 131 0
-59 126 -131 0
-60 1 132 0
-60 -1 -132 0
-61 1 132 0
-61 -1 -132 0
-62 1 132 0
-62 -1 -132 0
-63 -122 132 0
-63 122 -132 0
-64 -123 132 0
-64 123 -132 0
-65 -124 132 0
-65 124 -132 0
-66 -125 132 0
-66 125 -132 0
-67 -126 132 0
-67 126 -132 0
-114 1 124 0
-114 -1 -124 0
-119 1 124 0
-119 -1 -124 0
-68 133 -125 0
-68 134 -125 0
-68 -133 -134 125 0
-69 -133 125 0
-69 -134 125 0
-69 133 134 -125 0
-70 -133 -134 -125 0
-70 -133 134 125 0
-70 133 -134 125 0
-70 133 134 -125 0
-71 133 125 0
-71 134 125 0
-71 -133 -134 -125 0
-72 -133 -125 0
-72 -134 -125 0
-72 133 134 125 0
-73 -133 -134 125 0
-73 -133 134 -125 0
-73 133 -134 -125 0
-73 133 134 125 0
-74 1 133 0
-74 -1 -133 0
-75 1 133 0
-75 -1 -133 0
-76 1 133 0
-76 -1 -133 0
-77 -122 133 0
-77 122 -133 0
-78 -123 133 0
-78 123 -133 0
-79 -124 133 0
-79 124 -133 0
-80 -125 133 0
-80 125 -133 0
-81 -126 133 0
-81 126 -133 0
-82 1 134 0
-82 -1 -134 0
-83 1 134 0
-83 -1 -134 0
-84 1 134 0
-84 -1 -134 0
-85 -122 134 0
-85 122 -134 0
-86 -123 134 0
-86 123 -134 0
-87 -124 134 0
-87 124 -134 0
-88 -125 134 0
-88 125 -134 0
-89 -126 134 0
-89 126 -134 0
-115 1 125 0
-115 -1 -125 0
-120 1 125 0
-120 -1 -125 0
-90 135 -126 0
-90 136 -126 0
-90 -135 -136 126 0
-91 -135 126 0
-91 -136 126 0
-91 135 136 -126 0
-92 -135 -136 -126 0
-92 -135 136 126 0
-92 135 -136 126 0
-92 135 136 -126 0
-93 135 126 0
-93 136 126 0
-93 -135 -136 -126 0
-94 -135 -126 0
-94 -136 -126 0
-94 135 136 126 0
-95 -135 -136 126 0
-95 -135 136 -126 0
-95 135 -136 -126 0
-95 135 136 126 0
-96 1 135 0
-96 -1 -135 0
-97 1 135 0
-97 -1 -135 0
-98 1 135 0
-98 -1 -135 0
-99 -122 135 0
-99 122 -135 0
-100 -123 135 0
-100 123 -135 0
-101 -124 135 0
-101 124 -135 0
-102 -125 135 0
-102 125 -135 0
-103 -126 135 0
-103 126 -135 0
-104 1 136 0
-104 -1 -136 0
-105 1 136 0
-105 -1 -136 0
-106 1 136 0
-106 -1 -136 0
-107 -122 136 0
-107 122 -136 0
-108 -123 136 0
-108 123 -136 0
-109 -124 136 0
-109 124 -136 0
-110 -125 136 0
-110 125 -136 0
-111 -126 136 0
-111 126 -136 0
-116 1 126 0
-116 -1 -126 0
-121 1 126 0
-121 -1 -126 0
-2 142 -137 0
-2 143 -137 0
-2 -142 -143 137 0
-3 -142 137 0
-3 -143 137 0
-3 142 143 -137 0
-4 -142 -143 -137 0
-4 -142 143 137 0
-4 142 -143 137 0
-4 142 143 -137 0
-5 142 137 0
-5 143 137 0
-5 -142 -143 -137 0
-6 -142 -137 0
-6 -143 -137 0
-6 142 143 137 0
-7 -142 -143 137 0
-7 -142 143 -137 0
-7 142 -143 -137 0
-7 142 143 137 0
-8 -1 142 0
-8 1 -142 0
-9 1 142 0
-9 -1 -142 0
-10 1 142 0
-10 -1 -142 0
-11 -137 142 0
-11 137 -142 0
-12 -138 142 0
-12 138 -142 0
-13 -139 142 0
-13 139 -142 0
-14 -140 142 0
-14 140 -142 0
-15 -141 142 0
-15 141 -142 0
-16 -1 143 0
-16 1 -143 0
-17 1 143 0
-17 -1 -143 0
-18 1 143 0
-18 -1 -143 0
-19 -137 143 0
-19 137 -143 0
-20 -138 143 0
-20 138 -143 0
-21 -139 143 0
-21 139 -143 0
-22 -140 143 0
-22 140 -143 0
-23 -141 143 0
-23 141 -143 0
-112 -1 137 0
-112 1 -137 0
-117 1 137 0
-117 -1 -137 0
-24 144 -138 0
-24 145 -138 0
-24 -144 -145 138 0
-25 -144 138 0
-25 -145 138 0
-25 144 145 -138 0
-26 -144 -145 -138 0
-26 -144 145 138 0
-26 144 -145 138 0
-26 144 145 -138 0
-27 144 138 0
-27 145 138 0
-27 -144 -145 -138 0
-28 -144 -138 0
-28 -145 -138 0
-28 144 145 138 0
-29 -144 -145 138 0
-29 -144 145 -138 0
-29 144 -145 -138 0
-29 144 145 138 0
-30 -1 144 0
-30 1 -144 0
-31 1 144 0
-31 -1 -144 0
-32 1 144 0
-32 -1 -144 0
-33 -137 144 0
-33 137 -144 0
-34 -138 144 0
-34 138 -144 0
-35 -139 144 0
-35 139 -144 0
-36 -140 144 0
-36 140 -144 0
-37 -141 144 0
-37 141 -144 0
-38 -1 145 0
-38 1 -145 0
-39 1 145 0
-39 -1 -145 0
-40 1 145 0
-40 -1 -145 0
-41 -137 145 0
-41 137 -145 0
-42 -138 145 0
-42 138 -145 0
-43 -139 145 0
-43 139 -145 0
-44 -140 145 0
-44 140 -145 0
-45 -141 145 0
-45 141 -145 0
-113 -1 138 0
-113 1 -138 0
-118 1 138 0
-118 -1 -138 0
-46 146 -139 0
-46 147 -139 0
-46 -146 -147 139 0
-47 -146 139 0
-47 -147 139 0
-47 146 147 -139 0
-48 -146 -147 -139 0
-48 -146 147 139 0
-48 146 -147 139 0
-48 146 147 -139 0
-49 146 139 0
-49 147 139 0
-49 -146 -147 -139 0
-50 -146 -139 0
-50 -147 -139 0
-50 146 147 139 0
-51 -146 -147 139 0
-51 -146 147 -139 0
-51 146 -147 -139 0
-51 146 147 139 0
-52 -1 146 0
-52 1 -146 0
-53 1 146 0
-53 -1 -146 0
-54 1 146 0
-54 -1 -146 0
-55 -137 146 0
-55 137 -146 0
-56 -138 146 0
-56 138 -146 0
-57 -139 146 0
-57 139 -146 0
-58 -140 146 0
-58 140 -146 0
-59 -141 146 0
-59 141 -146 0
-60 -1 147 0
-60 1 -147 0
-61 1 147 0
-61 -1 -147 0
-62 1 147 0
-62 -1 -147 0
-63 -137 147 0
-63 137 -147 0
-64 -138 147 0
-64 138 -147 0
-65 -139 147 0
-65 139 -147 0
-66 -140 147 0
-66 140 -147 0
-67 -141 147 0
-67 141 -147 0
-114 -1 139 0
-114 1 -139 0
-119 1 139 0
-119 -1 -139 0
-68 148 -140 0
-68 149 -140 0
-68 -148 -149 140 0
-69 -148 140 0
-69 -149 140 0
-69 148 149 -140 0
-70 -148 -149 -140 0
-70 -148 149 140 0
-70 148 -149 140 0
-70 148 149 -140 0
-71 148 140 0
-71 149 140 0
-71 -148 -149 -140 0
-72 -148 -140 0
-72 -149 -140 0
-72 148 149 140 0
-73 -148 -149 140 0
-73 -148 149 -140 0
-73 148 -149 -140 0
-73 148 149 140 0
-74 -1 148 0
-74 1 -148 0
-75 1 148 0
-75 -1 -148 0
-76 1 148 0
-76 -1 -148 0
-77 -137 148 0
-77 137 -148 0
-78 -138 148 0
-78 138 -148 0
-79 -139 148 0
-79 139 -148 0
-80 -140 148 0
-80 140 -148 0
-81 -141 148 0
-81 141 -148 0
-82 -1 149 0
-82 1 -149 0
-83 1 149 0
-83 -1 -149 0
-84 1 149 0
-84 -1 -149 0
-85 -137 149 0
-85 137 -149 0
-86 -138 149 0
-86 138 -149 0
-87 -139 149 0
-87 139 -149 0
-88 -140 149 0
-88 140 -149 0
-89 -141 149 0
-89 141 -149 0
-115 -1 140 0
-115 1 -140 0
-120 1 140 0
-120 -1 -140 0
-90 150 -141 0
-90 151 -141 0
-90 -150 -151 141 0
-91 -150 141 0
-91 -151 141 0
-91 150 151 -141 0
-92 -150 -151 -141 0
-92 -150 151 141 0
-92 150 -151 141 0
-92 150 151 -141 0
-93 150 141 0
-93 151 141 0
-93 -150 -151 -141 0
-94 -150 -141 0
-94 -151 -141 0
-94 150 151 141 0
-95 -150 -151 141 0
-95 -150 151 -141 0
-95 150 -151 -141 0
-95 150 151 141 0
-96 -1 150 0
-96 1 -150 0
-97 1 150 0
-97 -1 -150 0
-98 1 150 0
-98 -1 -150 0
-99 -137 150 0
-99 137 -150 0
-100 -138 150 0
-100 138 -150 0
-101 -139 150 0
-101 139 -150 0
-102 -140 150 0
-102 140 -150 0
-103 -141 150 0
-103 141 -150 0
-104 -1 151 0
-104 1 -151 0
-105 1 151 0
-105 -1 -151 0
-106 1 151 0
-106 -1 -151 0
-107 -137 151 0
-107 137 -151 0
-108 -138 151 0
-108 138 -151 0
-109 -139 151 0
-109 139 -151 0
-110 -140 151 0
-110 140 -151 0
-111 -141 151 0
-111 141 -151 0
-116 -1 141 0
-116 1 -141 0
-121 1 141 0
-121 -1 -141 0
-2 157 -152 0
-2 158 -152 0
-2 -157 -158 152 0
-3 -157 152 0
-3 -158 152 0
-3 157 158 -152 0
-4 -157 -158 -152 0
-4 -157 158 152 0
-4 157 -158 152 0
-4 157 158 -152 0
-5 157 152 0
-5 158 152 0
-5 -157 -158 -152 0
-6 -157 -152 0
-6 -158 -152 0
-6 157 158 152 0
-7 -157 -158 152 0
-7 -157 158 -152 0
-7 157 -158 -152 0
-7 157 158 152 0
-8 1 157 0
-8 -1 -157 0
-9 -1 157 0
-9 1 -157 0
-10 1 157 0
-10 -1 -157 0
-11 -152 157 0
-11 152 -157 0
-12 -153 157 0
-12 153 -157 0
-13 -154 157 0
-13 154 -157 0
-14 -155 157 0
-14 155 -157 0
-15 -156 157 0
-15 156 -157 0
-16 1 158 0
-16 -1 -158 0
-17 -1 158 0
-17 1 -158 0
-18 1 158 0
-18 -1 -158 0
-19 -152 158 0
-19 152 -158 0
-20 -153 158 0
-20 153 -158 0
-21 -154 158 0
-21 154 -158 0
-22 -155 158 0
-22 155 -158 0
-23 -156 158 0
-23 156 -158 0
-112 -1 152 0
-112 1 -152 0
-117 1 152 0
-117 -1 -152 0
-24 159 -153 0
-24 160 -153 0
-24 -159 -160 153 0
-25 -159 153 0
-25 -160 153 0
-25 159 160 -153 0
-26 -159 -160 -153 0
-26 -159 160 153 0
-26 159 -160 153 0
-26 159 160 -153 0
-27 159 153 0
-27 160 153 0
-27 -159 -160 -153 0
-28 -159 -153 0
-28 -160 -153 0
-28 159 160 153 0
-29 -159 -160 153 0
-29 -159 160 -153 0
-29 159 -160 -153 0
-29 159 160 153 0
-30 1 159 0
-30 -1 -159 0
-31 -1 159 0
-31 1 -159 0
-32 1 159 0
-32 -1 -159 0
-33 -152 159 0
-33 152 -159 0
-34 -153 159 0
-34 153 -159 0
-35 -154 159 0
-35 154 -159 0
-36 -155 159 0
-36 155 -159 0
-37 -156 159 0
-37 156 -159 0
-38 1 160 0
-38 -1 -160 0
-39 -1 160 0
-39 1 -160 0
-40 1 160 0
-40 -1 -160 0
-41 -152 160 0
-41 152 -160 0
-42 -153 160 0
-42 153 -160 0
-43 -154 160 0
-43 154 -160 0
-44 -155 160 0
-44 155 -160 0
-45 -156 160 0
-45 156 -160 0
-113 -1 153 0
-113 1 -153 0
-118 1 153 0
-118 -1 -153 0
-46 161 -154 0
-46 162 -154 0
-46 -161 -162 154 0
-47 -161 154 0
-47 -162 154 0
-47 161 162 -154 0
-48 -161 -162 -154 0
-48 -161 162 154 0
-48 161 -162 154 0
-48 161 162 -154 0
-49 161 154 0
-49 162 154 0
-49 -161 -162 -154 0
-50 -161 -154 0
-50 -162 -154 0
-50 161 162 154 0
-51 -161 -162 154 0
-51 -161 162 -154 0
-51 161 -162 -154 0
-51 161 162 154 0
-52 1 161 0
-52 -1 -161 0
-53 -1 161 0
-53 1 -161 0
-54 1 161 0
-54 -1 -161 0
-55 -152 161 0
-55 152 -161 0
-56 -153 161 0
-56 153 -161 0
-57 -154 161 0
-57 154 -161 0
-58 -155 161 0
-58 155 -161 0
-59 -156 161 0
-59 156 -161 0
-60 1 162 0
-60 -1 -162 0
-61 -1 162 0
-61 1 -162 0
-62 1 162 0
-62 -1 -162 0
-63 -152 162 0
-63 152 -162 0
-64 -153 162 0
-64 153 -162 0
-65 -154 162 0
-65 154 -162 0
-66 -155 162 0
-66 155 -162 0
-67 -156 162 0
-67 156 -162 0
-114 -1 154 0
-114 1 -154 0
-119 1 154 0
-119 -1 -154 0
-68 163 -155 0
-68 164 -155 0
-68 -163 -164 155 0
-69 -163 155 0
-69 -164 155 0
-69 163 164 -155 0
-70 -163 -164 -155 0
-70 -163 164 155 0
-70 163 -164 155 0
-70 163 164 -155 0
-71 163 155 0
-71 164 155 0
-71 -163 -164 -155 0
-72 -163 -155 0
-72 -164 -155 0
-72 163 164 155 0
-73 -163 -164 155 0
-73 -163 164 -155 0
-73 163 -164 -155 0
-73 163 164 155 0
-74 1 163 0
-74 -1 -163 0
-75 -1 163 0
-75 1 -163 0
-76 1 163 0
-76 -1 -163 0
-77 -152 163 0
-77 152 -163 0
-78 -153 163 0
-78 153 -163 0
-79 -154 163 0
-79 154 -163 0
-80 -155 163 0
-80 155 -163 0
-81 -156 163 0
-81 156 -163 0
-82 1 164 0
-82 -1 -164 0
-83 -1 164 0
-83 1 -164 0
-84 1 164 0
-84 -1 -164 0
-85 -152 164 0
-85 152 -164 0
-86 -153 164 0
-86 153 -164 0
-87 -154 164 0
-87 154 -164 0
-88 -155 164 0
-88 155 -164 0
-89 -156 164 0
-89 156 -164 0
-115 -1 155 0
-115 1 -155 0
-120 1 155 0
-120 -1 -155 0
-90 165 -156 0
-90 166 -156 0
-90 -165 -166 156 0
-91 -165 156 0
-91 -166 156 0
-91 165 166 -156 0
-92 -165 -166 -156 0
-92 -165 166 156 0
-92 165 -166 156 0
-92 165 166 -156 0
-93 165 156 0
-93 166 156 0
-93 -165 -166 -156 0
-94 -165 -156 0
-94 -166 -156 0
-94 165 166 156 0
-95 -165 -166 156 0
-95 -165 166 -156 0
-95 165 -166 -156 0
-95 165 166 156 0
-96 1 165 0
-96 -1 -165 0
-97 -1 165 0
-97 1 -165 0
-98 1 165 0
-98 -1 -165 0
-99 -152 165 0
-99 152 -165 0
-100 -153 165 0
-100 153 -165 0
-101 -154 165 0
-101 154 -165 0
-102 -155 165 0
-102 155 -165 0
-103 -156 165 0
-103 156 -165 0
-104 1 166 0
-104 -1 -166 0
-105 -1 166 0
-105 1 -166 0
-106 1 166 0
-106 -1 -166 0
-107 -152 166 0
-107 152 -166 0
-108 -153 166 0
-108 153 -166 0
-109 -154 166 0
-109 154 -166 0
-110 -155 166 0
-110 155 -166 0
-111 -156 166 0
-111 156 -166 0
-116 -1 156 0
-116 1 -156 0
-121 1 156 0
-121 -1 -156 0
-2 172 -167 0
-2 173 -167 0
-2 -172 -173 167 0
-3 -172 167 0
-3 -173 167 0
-3 172 173 -167 0
-4 -172 -173 -167 0
-4 -172 173 167 0
-4 172 -173 167 0
-4 172 173 -167 0
-5 172 167 0
-5 173 167 0
-5 -172 -173 -167 0
-6 -172 -167 0
-6 -173 -167 0
-6 172 173 167 0
-7 -172 -173 167 0
-7 -172 173 -167 0
-7 172 -173 -167 0
-7 172 173 167 0
-8 -1 172 0
-8 1 -172 0
-9 -1 172 0
-9 1 -172 0
-10 1 172 0
-10 -1 -172 0
-11 -167 172 0
-11 167 -172 0
-12 -168 172 0
-12 168 -172 0
-13 -169 172 0
-13 169 -172 0
-14 -170 172 0
-14 170 -172 0
-15 -171 172 0
-15 171 -172 0
-16 -1 173 0
-16 1 -173 0
-17 -1 173 0
-17 1 -173 0
-18 1 173 0
-18 -1 -173 0
-19 -167 173 0
-19 167 -173 0
-20 -168 173 0
-20 168 -173 0
-21 -169 173 0
-21 169 -173 0
-22 -170 173 0
-22 170 -173 0
-23 -171 173 0
-23 171 -173 0
-112 1 167 0
-112 -1 -167 0
-117 -1 167 0
-117 1 -167 0
-24 174 -168 0
-24 175 -168 0
-24 -174 -175 168 0
-25 -174 168 0
-25 -175 168 0
-25 174 175 -168 0
-26 -174 -175 -168 0
-26 -174 175 168 0
-26 174 -175 168 0
-26 174 175 -168 0
-27 174 168 0
-27 175 168 0
-27 -174 -175 -168 0
-28 -174 -168 0
-28 -175 -168 0
-28 174 175 168 0
-29 -174 -175 168 0
-29 -174 175 -168 0
-29 174 -175 -168 0
-29 174 175 168 0
-30 -1 174 0
-30 1 -174 0
-31 -1 174 0
-31 1 -174 0
-32 1 174 0
-32 -1 -174 0
-33 -167 174 0
-33 167 -174 0
-34 -168 174 0
-34 168 -174 0
-35 -169 174 0
-35 169 -174 0
-36 -170 174 0
-36 170 -174 0
-37 -171 174 0
-37 171 -174 0
-38 -1 175 0
-38 1 -175 0
-39 -1 175 0
-39 1 -175 0
-40 1 175 0
-40 -1 -175 0
-41 -167 175 0
-41 167 -175 0
-42 -168 175 0
-42 168 -175 0
-43 -169 175 0
-43 169 -175 0
-44 -170 175 0
-44 170 -175 0
-45 -171 175 0
-45 171 -175 0
-113 1 168 0
-113 -1 -168 0
-118 -1 168 0
-118 1 -168 0
-46 176 -169 0
-46 177 -169 0
-46 -176 -177 169 0
-47 -176 169 0
-47 -177 169 0
-47 176 177 -169 0
-48 -176 -177 -169 0
-48 -176 177 169 0
-48 176 -177 169 0
-48 176 177 -169 0
-49 176 169 0
-49 177 169 0
-49 -176 -177 -169 0
-50 -176 -169 0
-50 -177 -169 0
-50 176 177 169 0
-51 -176 -177 169 0
-51 -176 177 -169 0
-51 176 -177 -169 0
-51 176 177 169 0
-52 -1 176 0
-52 1 -176 0
-53 -1 176 0
-53 1 -176 0
-54 1 176 0
-54 -1 -176 0
-55 -167 176 0
-55 167 -176 0
-56 -168 176 0
-56 168 -176 0
-57 -169 176 0
-57 169 -176 0
-58 -170 176 0
-58 170 -176 0
-59 -171 176 0
-59 171 -176 0
-60 -1 177 0
-60 1 -177 0
-61 -1 177 0
-61 1 -177 0
-62 1 177 0
-62 -1 -177 0
-63 -167 177 0
-63 167 -177 0
-64 -168 177 0
-64 168 -177 0
-65 -169 177 0
-65 169 -177 0
-66 -170 177 0
-66 170 -177 0
-67 -171 177 0
-67 171 -177 0
-114 1 169 0
-114 -1 -169 0
-119 -1 169 0
-119 1 -169 0
-68 178 -170 0
-68 179 -170 0
-68 -178 -179 170 0
-69 -178 170 0
-69 -179 170 0
-69 178 179 -170 0
-70 -178 -179 -170 0
-70 -178 179 170 0
-70 178 -179 170 0
-70 178 179 -170 0
-71 178 170 0
-71 179 170 0
-71 -178 -179 -170 0
-72 -178 -170 0
-72 -179 -170 0
-72 178 179 170 0
-73 -178 -179 170 0
-73 -178 179 -170 0
-73 178 -179 -170 0
-73 178 179 170 0
-74 -1 178 0
-74 1 -178 0
-75 -1 178 0
-75 1 -178 0
-76 1 178 0
-76 -1 -178 0
-77 -167 178 0
-77 167 -178 0
-78 -168 178 0
-78 168 -178 0
-79 -169 178 0
-79 169 -178 0
-80 -170 178 0
-80 170 -178 0
-81 -171 178 0
-81 171 -178 0
-82 -1 179 0
-82 1 -179 0
-83 -1 179 0
-83 1 -179 0
-84 1 179 0
-84 -1 -179 0
-85 -167 179 0
-85 167 -179 0
-86 -168 179 0
-86 168 -179 0
-87 -169 179 0
-87 169 -179 0
-88 -170 179 0
-88 170 -179 0
-89 -171 179 0
-89 171 -179 0
-115 1 170 0
-115 -1 -170 0
-120 -1 170 0
-120 1 -170 0
-90 180 -171 0
-90 181 -171 0
-90 -180 -181 171 0
-91 -180 171 0
-91 -181 171 0
-91 180 181 -171 0
-92 -180 -181 -171 0
-92 -180 181 171 0
-92 180 -181 171 0
-92 180 181 -171 0
-93 180 171 0
-93 181 171 0
-93 -180 -181 -171 0
-94 -180 -171 0
-94 -181 -171 0
-94 180 181 171 0
-95 -180 -181 171 0
-95 -180 181 -171 0
-95 180 -181 -171 0
-95 180 181 171 0
-96 -1 180 0
-96 1 -180 0
-97 -1 180 0
-97 1 -180 0
-98 1 180 0
-98 -1 -180 0
-99 -167 180 0
-99 167 -180 0
-100 -168 180 0
-100 168 -180 0
-101 -169 180 0
-101 169 -180 0
-102 -170 180 0
-102 170 -180 0
-103 -171 180 0
-103 171 -180 0
-104 -1 181 0
-104 1 -181 0
-105 -1 181 0
-105 1 -181 0
-106 1 181 0
-106 -1 -181 0
-107 -167 181 0
-107 167 -181 0
-108 -168 181 0
-108 168 -181 0
-109 -169 181 0
-109 169 -181 0
-110 -170 181 0
-110 170 -181 0
-111 -171 181 0
-111 171 -181 0
-116 1 171 0
-116 -1 -171 0
-121 -1 171 0
-121 1 -171 0
-2 187 -182 0
-2 188 -182 0
-2 -187 -188 182 0
-3 -187 182 0
-3 -188 182 0
-3 187 188 -182 0
-4 -187 -188 -182 0
-4 -187 188 182 0
-4 187 -188 182 0
-4 187 188 -182 0
-5 187 182 0
-5 188 182 0
-5 -187 -188 -182 0
-6 -187 -182 0
-6 -188 -182 0
-6 187 188 182 0
-7 -187 -188 182 0
-7 -187 188 -182 0
-7 187 -188 -182 0
-7 187 188 182 0
-8 1 187 0
-8 -1 -187 0
-9 1 187 0
-9 -1 -187 0
-10 -1 187 0
-10 1 -187 0
-11 -182 187 0
-11 182 -187 0
-12 -183 187 0
-12 183 -187 0
-13 -184 187 0
-13 184 -187 0
-14 -185 187 0
-14 185 -187 0
-15 -186 187 0
-15 186 -187 0
-16 1 188 0
-16 -1 -188 0
-17 1 188 0
-17 -1 -188 0
-18 -1 188 0
-18 1 -188 0
-19 -182 188 0
-19 182 -188 0
-20 -183 188 0
-20 183 -188 0
-21 -184 188 0
-21 184 -188 0
-22 -185 188 0
-22 185 -188 0
-23 -186 188 0
-23 186 -188 0
-112 -1 182 0
-112 1 -182 0
-117 1 182 0
-117 -1 -182 0
-24 189 -183 0
-24 190 -183 0
-24 -189 -190 183 0
-25 -189 183 0
-25 -190 183 0
-25 189 190 -183 0
-26 -189 -190 -183 0
-26 -189 190 183 0
-26 189 -190 183 0
-26 189 190 -183 0
-27 189 183 0
-27 190 183 0
-27 -189 -190 -183 0
-28 -189 -183 0
-28 -190 -183 0
-28 189 190 183 0
-29 -189 -190 183 0
-29 -189 190 -183 0
-29 189 -190 -183 0
-29 189 190 183 0
-30 1 189 0
-30 -1 -189 0
-31 1 189 0
-31 -1 -189 0
-32 -1 189 0
-32 1 -189 0
-33 -182 189 0
-33 182 -189 0
-34 -183 189 0
-34 183 -189 0
-35 -184 189 0
-35 184 -189 0
-36 -185 189 0
-36 185 -189 0
-37 -186 189 0
-37 186 -189 0
-38 1 190 0
-38 -1 -190 0
-39 1 190 0
-39 -1 -190 0
-40 -1 190 0
-40 1 -190 0
-41 -182 190 0
-41 182 -190 0
-42 -183 190 0
-42 183 -190 0
-43 -184 190 0
-43 184 -190 0
-44 -185 190 0
-44 185 -190 0
-45 -186 190 0
-45 186 -190 0
-113 -1 183 0
-113 1 -183 0
-118 1 183 0
-118 -1 -183 0
-46 191 -184 0
-46 192 -184 0
-46 -191 -192 184 0
-47 -191 184 0
-47 -192 184 0
-47 191 192 -184 0
-48 -191 -192 -184 0
-48 -191 192 184 0
-48 191 -192 184 0
-48 191 192 -184 0
-49 191 184 0
-49 192 184 0
-49 -191 -192 -184 0
-50 -191 -184 0
-50 -192 -184 0
-50 191 192 184 0
-51 -191 -192 184 0
-51 -191 192 -184 0
-51 191 -192 -184 0
-51 191 192 184 0
-52 1 191 0
-52 -1 -191 0
-53 1 191 0
-53 -1 -191 0
-54 -1 191 0
-54 1 -191 0
-55 -182 191 0
-55 182 -191 0
-56 -183 191 0
-56 183 -191 0
-57 -184 191 0
-57 184 -191 0
-58 -185 191 0
-58 185 -191 0
-59 -186 191 0
-59 186 -191 0
-60 1 192 0
-60 -1 -192 0
-61 1 192 0
-61 -1 -192 0
-62 -1 192 0
-62 1 -192 0
-63 -182 192 0
-63 182 -192 0
-64 -183 192 0
-64 183 -192 0
-65 -184 192 0
-65 184 -192 0
-66 -185 192 0
-66 185 -192 0
-67 -186 192 0
-67 186 -192 0
-114 -1 184 0
-114 1 -184 0
-119 1 184 0
-119 -1 -184 0
-68 193 -185 0
-68 194 -185 0
-68 -193 -194 185 0
-69 -193 185 0
-69 -194 185 0
-69 193 194 -185 0
-70 -193 -194 -185 0
-70 -193 194 185 0
-70 193 -194 185 0
-70 193 194 -185 0
-71 193 185 0
-71 194 185 0
-71 -193 -194 -185 0
-72 -193 -185 0
-72 -194 -185 0
-72 193 194 185 0
-73 -193 -194 185 0
-73 -193 194 -185 0
-73 193 -194 -185 0
-73 193 194 185 0
-74 1 193 0
-74 -1 -193 0
-75 1 193 0
-75 -1 -193 0
-76 -1 193 0
-76 1 -193 0
-77 -182 193 0
-77 182 -193 0
-78 -183 193 0
-78 183 -193 0
-79 -184 193 0
-79 184 -193 0
-80 -185 193 0
-80 185 -193 0
-81 -186 193 0
-81 186 -193 0
-82 1 194 0
-82 -1 -194 0
-83 1 194 0
-83 -1 -194 0
-84 -1 194 0
-84 1 -194 0
-85 -182 194 0
-85 182 -194 0
-86 -183 194 0
-86 183 -194 0
-87 -184 194 0
-87 184 -194 0
-88 -185 194 0
-88 185 -194 0
-89 -186 194 0
-89 186 -194 0
-115 -1 185 0
-115 1 -185 0
-120 1 185 0
-120 -1 -185 0
-90 195 -186 0
-90 196 -186 0
-90 -195 -196 186 0
-91 -195 186 0
-91 -196 186 0
-91 195 196 -186 0
-92 -195 -196 -186 0
-92 -195 196 186 0
-92 195 -196 186 0
-92 195 196 -186 0
-93 195 186 0
-93 196 186 0
-93 -195 -196 -186 0
-94 -195 -186 0
-94 -196 -186 0
-94 195 196 186 0
-95 -195 -196 186 0
-95 -195 196 -186 0
-95 195 -196 -186 0
-95 195 196 186 0
-96 1 195 0
-96 -1 -195 0
-97 1 195 0
-97 -1 -195 0
-98 -1 195 0
-98 1 -195 0
-99 -182 195 0
-99 182 -195 0
-100 -183 195 0
-100 183 -195 0
-101 -184 195 0
-101 184 -195 0
-102 -185 195 0
-102 185 -195 0
-103 -186 195 0
-103 186 -195 0
-104 1 196 0
-104 -1 -196 0
-105 1 196 0
-105 -1 -196 0
-106 -1 196 0
-106 1 -196 0
-107 -182 196 0
-107 182 -196 0
-108 -183 196 0
-108 183 -196 0
-109 -184 196 0
-109 184 -196 0
-110 -185 196 0
-110 185 -196 0
-111 -186 196 0
-111 186 -196 0
-116 -1 186 0
-116 1 -186 0
-121 1 186 0
-121 -1 -186 0
-2 202 -197 0
-2 203 -197 0
-2 -202 -203 197 0
-3 -202 197 0
-3 -203 197 0
-3 202 203 -197 0
-4 -202 -203 -197 0
-4 -202 203 197 0
-4 202 -203 197 0
-4 202 203 -197 0
-5 202 197 0
-5 203 197 0
-5 -202 -203 -197 0
-6 -202 -197 0
-6 -203 -197 0
-6 202 203 197 0
-7 -202 -203 197 0
-7 -202 203 -197 0
-7 202 -203 -197 0
-7 202 203 197 0
-8 -1 202 0
-8 1 -202 0
-9 1 202 0
-9 -1 -202 0
-10 -1 202 0
-10 1 -202 0
-11 -197 202 0
-11 197 -202 0
-12 -198 202 0
-12 198 -202 0
-13 -199 202 0
-13 199 -202 0
-14 -200 202 0
-14 200 -202 0
-15 -201 202 0
-15 201 -202 0
-16 -1 203 0
-16 1 -203 0
-17 1 203 0
-17 -1 -203 0
-18 -1 203 0
-18 1 -203 0
-19 -197 203 0
-19 197 -203 0
-20 -198 203 0
-20 198 -203 0
-21 -199 203 0
-21 199 -203 0
-22 -200 203 0
-22 200 -203 0
-23 -201 203 0
-23 201 -203 0
-112 1 197 0
-112 -1 -197 0
-117 -1 197 0
-117 1 -197 0
-24 204 -198 0
-24 205 -198 0
-24 -204 -205 198 0
-25 -204 198 0
-25 -205 198 0
-25 204 205 -198 0
-26 -204 -205 -198 0
-26 -204 205 198 0
-26 204 -205 198 0
-26 204 205 -198 0
-27 204 198 0
-27 205 198 0
-27 -204 -205 -198 0
-28 -204 -198 0
-28 -205 -198 0
-28 204 205 198 0
-29 -204 -205 198 0
-29 -204 205 -198 0
-29 204 -205 -198 0
-29 204 205 198 0
-30 -1 204 0
-30 1 -204 0
-31 1 204 0
-31 -1 -204 0
-32 -1 204 0
-32 1 -204 0
-33 -197 204 0
-33 197 -204 0
-34 -198 204 0
-34 198 -204 0
-35 -199 204 0
-35 199 -204 0
-36 -200 204 0
-36 200 -204 0
-37 -201 204 0
-37 201 -204 0
-38 -1 205 0
-38 1 -205 0
-39 1 205 0
-39 -1 -205 0
-40 -1 205 0
-40 1 -205 0
-41 -197 205 0
-41 197 -205 0
-42 -198 205 0
-42 198 -205 0
-43 -199 205 0
-43 199 -205 0
-44 -200 205 0
-44 200 -205 0
-45 -201 205 0
-45 201 -205 0
-113 1 198 0
-113 -1 -198 0
-118 -1 198 0
-118 1 -198 0
-46 206 -199 0
-46 207 -199 0
-46 -206 -207 199 0
-47 -206 199 0
-47 -207 199 0
-47 206 207 -199 0
-48 -206 -207 -199 0
-48 -206 207 199 0
-48 206 -207 199 0
-48 206 207 -199 0
-49 206 199 0
-49 207 199 0
-49 -206 -207 -199 0
-50 -206 -199 0
-50 -207 -199 0
-50 206 207 199 0
-51 -206 -207 199 0
-51 -206 207 -199 0
-51 206 -207 -199 0
-51 206 207 199 0
-52 -1 206 0
-52 1 -206 0
-53 1 206 0
-53 -1 -206 0
-54 -1 206 0
-54 1 -206 0
-55 -197 206 0
-55 197 -206 0
-56 -198 206 0
-56 198 -206 0
-57 -199 206 0
-57 199 -206 0
-58 -200 206 0
-58 200 -206 0
-59 -201 206 0
-59 201 -206 0
-60 -1 207 0
-60 1 -207 0
-61 1 207 0
-61 -1 -207 0
-62 -1 207 0
-62 1 -207 0
-63 -197 207 0
-63 197 -207 0
-64 -198 207 0
-64 198 -207 0
-65 -199 207 0
-65 199 -207 0
-66 -200 207 0
-66 200 -207 0
-67 -201 207 0
-67 201 -207 0
-114 1 199 0
-114 -1 -199 0
-119 -1 199 0
-119 1 -199 0
-68 208 -200 0
-68 209 -200 0
-68 -208 -209 200 0
-69 -208 200 0
-69 -209 200 0
-69 208 209 -200 0
-70 -208 -209 -200 0
-70 -208 209 200 0
-70 208 -209 200 0
-70 208 209 -200 0
-71 208 200 0
-71 209 200 0
-71 -208 -209 -200 0
-72 -208 -200 0
-72 -209 -200 0
-72 208 209 200 0
-73 -208 -209 200 0
-73 -208 209 -200 0
-73 208 -209 -200 0
-73 208 209 200 0
-74 -1 208 0
-74 1 -208 0
-75 1 208 0
-75 -1 -208 0
-76 -1 208 0
-76 1 -208 0
-77 -197 208 0
-77 197 -208 0
-78 -198 208 0
-78 198 -208 0
-79 -199 208 0
-79 199 -208 0
-80 -200 208 0
-80 200 -208 0
-81 -201 208 0
-81 201 -208 0
-82 -1 209 0
-82 1 -209 0
-83 1 209 0
-83 -1 -209 0
-84 -1 209 0
-84 1 -209 0
-85 -197 209 0
-85 197 -209 0
-86 -198 209 0
-86 198 -209 0
-87 -199 209 0
-87 199 -209 0
-88 -200 209 0
-88 200 -209 0
-89 -201 209 0
-89 201 -209 0
-115 1 200 0
-115 -1 -200 0
-120 -1 200 0
-120 1 -200 0
-90 210 -201 0
-90 211 -201 0
-90 -210 -211 201 0
-91 -210 201 0
-91 -211 201 0
-91 210 211 -201 0
-92 -210 -211 -201 0
-92 -210 211 201 0
-92 210 -211 201 0
-92 210 211 -201 0
-93 210 201 0
-93 211 201 0
-93 -210 -211 -201 0
-94 -210 -201 0
-94 -211 -201 0
-94 210 211 201 0
-95 -210 -211 201 0
-95 -210 211 -201 0
-95 210 -211 -201 0
-95 210 211 201 0
-96 -1 210 0
-96 1 -210 0
-97 1 210 0
-97 -1 -210 0
-98 -1 210 0
-98 1 -210 0
-99 -197 210 0
-99 197 -210 0
-100 -198 210 0
-100 198 -210 0
-101 -199 210 0
-101 199 -210 0
-102 -200 210 0
-102 200 -210 0
-103 -201 210 0
-103 201 -210 0
-104 -1 211 0
-104 1 -211 0
-105 1 211 0
-105 -1 -211 0
-106 -1 211 0
-106 1 -211 0
-107 -197 211 0
-107 197 -211 0
-108 -198 211 0
-108 198 -211 0
-109 -199 211 0
-109 199 -211 0
-110 -200 211 0
-110 200 -211 0
-111 -201 211 0
-111 201 -211 0
-116 1 201 0
-116 -1 -201 0
-121 -1 201 0
-121 1 -201 0
-2 217 -212 0
-2 218 -212 0
-2 -217 -218 212 0
-3 -217 212 0
-3 -218 212 0
-3 217 218 -212 0
-4 -217 -218 -212 0
-4 -217 218 212 0
-4 217 -218 212 0
-4 217 218 -212 0
-5 217 212 0
-5 218 212 0
-5 -217 -218 -212 0
-6 -217 -212 0
-6 -218 -212 0
-6 217 218 212 0
-7 -217 -218 212 0
-7 -217 218 -212 0
-7 217 -218 -212 0
-7 217 218 212 0
-8 1 217 0
-8 -1 -217 0
-9 -1 217 0
-9 1 -217 0
-10 -1 217 0
-10 1 -217 0
-11 -212 217 0
-11 212 -217 0
-12 -213 217 0
-12 213 -217 0
-13 -214 217 0
-13 214 -217 0
-14 -215 217 0
-14 215 -217 0
-15 -216 217 0
-15 216 -217 0
-16 1 218 0
-16 -1 -218 0
-17 -1 218 0
-17 1 -218 0
-18 -1 218 0
-18 1 -218 0
-19 -212 218 0
-19 212 -218 0
-20 -213 218 0
-20 213 -218 0
-21 -214 218 0
-21 214 -218 0
-22 -215 218 0
-22 215 -218 0
-23 -216 218 0
-23 216 -218 0
-112 1 212 0
-112 -1 -212 0
-117 -1 212 0
-117 1 -212 0
-24 219 -213 0
-24 220 -213 0
-24 -219 -220 213 0
-25 -219 213 0
-25 -220 213 0
-25 219 220 -213 0
-26 -219 -220 -213 0
-26 -219 220 213 0
-26 219 -220 213 0
-26 219 220 -213 0
-27 219 213 0
-27 220 213 0
-27 -219 -220 -213 0
-28 -219 -213 0
-28 -220 -213 0
-28 219 220 213 0
-29 -219 -220 213 0
-29 -219 220 -213 0
-29 219 -220 -213 0
-29 219 220 213 0
-30 1 219 0
-30 -1 -219 0
-31 -1 219 0
-31 1 -219 0
-32 -1 219 0
-32 1 -219 0
-33 -212 219 0
-33 212 -219 0
-34 -213 219 0
-34 213 -219 0
-35 -214 219 0
-35 214 -219 0
-36 -215 219 0
-36 215 -219 0
-37 -216 219 0
-37 216 -219 0
-38 1 220 0
-38 -1 -220 0
-39 -1 220 0
-39 1 -220 0
-40 -1 220 0
-40 1 -220 0
-41 -212 220 0
-41 212 -220 0
-42 -213 220 0
-42 213 -220 0
-43 -214 220 0
-43 214 -220 0
-44 -215 220 0
-44 215 -220 0
-45 -216 220 0
-45 216 -220 0
-113 1 213 0
-113 -1 -213 0
-118 -1 213 0
-118 1 -213 0
-46 221 -214 0
-46 222 -214 0
-46 -221 -222 214 0
-47 -221 214 0
-47 -222 214 0
-47 221 222 -214 0
-48 -221 -222 -214 0
-48 -221 222 214 0
-48 221 -222 214 0
-48 221 222 -214 0
-49 221 214 0
-49 222 214 0
-49 -221 -222 -214 0
-50 -221 -214 0
-50 -222 -214 0
-50 221 222 214 0
-51 -221 -222 214 0
-51 -221 222 -214 0
-51 221 -222 -214 0
-51 221 222 214 0
-52 1 221 0
-52 -1 -221 0
-53 -1 221 0
-53 1 -221 0
-54 -1 221 0
-54 1 -221 0
-55 -212 221 0
-55 212 -221 0
-56 -213 221 0
-56 213 -221 0
-57 -214 221 0
-57 214 -221 0
-58 -215 221 0
-58 215 -221 0
-59 -216 221 0
-59 216 -221 0
-60 1 222 0
-60 -1 -222 0
-61 -1 222 0
-61 1 -222 0
-62 -1 222 0
-62 1 -222 0
-63 -212 222 0
-63 212 -222 0
-64 -213 222 0
-64 213 -222 0
-65 -214 222 0
-65 214 -222 0
-66 -215 222 0
-66 215 -222 0
-67 -216 222 0
-67 216 -222 0
-114 1 214 0
-114 -1 -214 0
-119 -1 214 0
-119 1 -214 0
-68 223 -215 0
-68 224 -215 0
-68 -223 -224 215 0
-69 -223 215 0
-69 -224 215 0
-69 223 224 -215 0
-70 -223 -224 -215 0
-70 -223 224 215 0
-70 223 -224 215 0
-70 223 224 -215 0
-71 223 215 0
-71 224 215 0
-71 -223 -224 -215 0
-72 -223 -215 0
-72 -224 -215 0
-72 223 224 215 0
-73 -223 -224 215 0
-73 -223 224 -215 0
-73 223 -224 -215 0
-73 223 224 215 0
-74 1 223 0
-74 -1 -223 0
-75 -1 223 0
-75 1 -223 0
-76 -1 223 0
-76 1 -223 0
-77 -212 223 0
-77 212 -223 0
-78 -213 223 0
-78 213 -223 0
-79 -214 223 0
-79 214 -223 0
-80 -215 223 0
-80 215 -223 0
-81 -216 223 0
-81 216 -223 0
-82 1 224 0
-82 -1 -224 0
-83 -1 224 0
-83 1 -224 0
-84 -1 224 0
-84 1 -224 0
-85 -212 224 0
-85 212 -224 0
-86 -213 224 0
-86 213 -224 0
-87 -214 224 0
-87 214 -224 0
-88 -215 224 0
-88 215 -224 0
-89 -216 224 0
-89 216 -224 0
-115 1 215 0
-115 -1 -215 0
-120 -1 215 0
-120 1 -215 0
-90 225 -216 0
-90 226 -216 0
-90 -225 -226 216 0
-91 -225 216 0
-91 -226 216 0
-91 225 226 -216 0
-92 -225 -226 -216 0
-92 -225 226 216 0
-92 225 -226 216 0
-92 225 226 -216 0
-93 225 216 0
-93 226 216 0
-93 -225 -226 -216 0
-94 -225 -216 0
-94 -226 -216 0
-94 225 226 216 0
-95 -225 -226 216 0
-95 -225 226 -216 0
-95 225 -226 -216 0
-95 225 226 216 0
-96 1 225 0
-96 -1 -225 0
-97 -1 225 0
-97 1 -225 0
-98 -1 225 0
-98 1 -225 0
-99 -212 225 0
-99 212 -225 0
-100 -213 225 0
-100 213 -225 0
-101 -214 225 0
-101 214 -225 0
-102 -215 225 0
-102 215 -225 0
-103 -216 225 0
-103 216 -225 0
-104 1 226 0
-104 -1 -226 0
-105 -1 226 0
-105 1 -226 0
-106 -1 226 0
-106 1 -226 0
-107 -212 226 0
-107 212 -226 0
-108 -213 226 0
-108 213 -226 0
-109 -214 226 0
-109 214 -226 0
-110 -215 226 0
-110 215 -226 0
-111 -216 226 0
-111 216 -226 0
-116 1 216 0
-116 -1 -216 0
-121 -1 216 0
-121 1 -216 0
-2 232 -227 0
-2 233 -227 0
-2 -232 -233 227 0
-3 -232 227 0
-3 -233 227 0
-3 232 233 -227 0
-4 -232 -233 -227 0
-4 -232 233 227 0
-4 232 -233 227 0
-4 232 233 -227 0
-5 232 227 0
-5 233 227 0
-5 -232 -233 -227 0
-6 -232 -227 0
-6 -233 -227 0
-6 232 233 227 0
-7 -232 -233 227 0
-7 -232 233 -227 0
-7 232 -233 -227 0
-7 232 233 227 0
-8 -1 232 0
-8 1 -232 0
-9 -1 232 0
-9 1 -232 0
-10 -1 232 0
-10 1 -232 0
-11 -227 232 0
-11 227 -232 0
-12 -228 232 0
-12 228 -232 0
-13 -229 232 0
-13 229 -232 0
-14 -230 232 0
-14 230 -232 0
-15 -231 232 0
-15 231 -232 0
-16 -1 233 0
-16 1 -233 0
-17 -1 233 0
-17 1 -233 0
-18 -1 233 0
-18 1 -233 0
-19 -227 233 0
-19 227 -233 0
-20 -228 233 0
-20 228 -233 0
-21 -229 233 0
-21 229 -233 0
-22 -230 233 0
-22 230 -233 0
-23 -231 233 0
-23 231 -233 0
-112 -1 227 0
-112 1 -227 0
-117 -1 227 0
-117 1 -227 0
-24 234 -228 0
-24 235 -228 0
-24 -234 -235 228 0
-25 -234 228 0
-25 -235 228 0
-25 234 235 -228 0
-26 -234 -235 -228 0
-26 -234 235 228 0
-26 234 -235 228 0
-26 234 235 -228 0
-27 234 228 0
-27 235 228 0
-27 -234 -235 -228 0
-28 -234 -228 0
-28 -235 -228 0
-28 234 235 228 0
-29 -234 -235 228 0
-29 -234 235 -228 0
-29 234 -235 -228 0
-29 234 235 228 0
-30 -1 234 0
-30 1 -234 0
-31 -1 234 0
-31 1 -234 0
-32 -1 234 0
-32 1 -234 0
-33 -227 234 0
-33 227 -234 0
-34 -228 234 0
-34 228 -234 0
-35 -229 234 0
-35 229 -234 0
-36 -230 234 0
-36 230 -234 0
-37 -231 234 0
-37 231 -234 0
-38 -1 235 0
-38 1 -235 0
-39 -1 235 0
-39 1 -235 0
-40 -1 235 0
-40 1 -235 0
-41 -227 235 0
-41 227 -235 0
-42 -228 235 0
-42 228 -235 0
-43 -229 235 0
-43 229 -235 0
-44 -230 235 0
-44 230 -235 0
-45 -231 235 0
-45 231 -235 0
-113 -1 228 0
-113 1 -228 0
-118 -1 228 0
-118 1 -228 0
-46 236 -229 0
-46 237 -229 0
-46 -236 -237 229 0
-47 -236 229 0
-47 -237 229 0
-47 236 237 -229 0
-48 -236 -237 -229 0
-48 -236 237 229 0
-48 236 -237 229 0
-48 236 237 -229 0
-49 236 229 0
-49 237 229 0
-49 -236 -237 -229 0
-50 -236 -229 0
-50 -237 -229 0
-50 236 237 229 0
-51 -236 -237 229 0
-51 -236 237 -229 0
-51 236 -237 -229 0
-51 236 237 229 0
-52 -1 236 0
-52 1 -236 0
-53 -1 236 0
-53 1 -236 0
-54 -1 236 0
-54 1 -236 0
-55 -227 236 0
-55 227 -236 0
-56 -228 236 0
-56 228 -236 0
-57 -229 236 0
-57 229 -236 0
-58 -230 236 0
-58 230 -236 0
-59 -231 236 0
-59 231 -236 0
-60 -1 237 0
-60 1 -237 0
-61 -1 237 0
-61 1 -237 0
-62 -1 237 0
-62 1 -237 0
-63 -227 237 0
-63 227 -237 0
-64 -228 237 0
-64 228 -237 0
-65 -229 237 0
-65 229 -237 0
-66 -230 237 0
-66 230 -237 0
-67 -231 237 0
-67 231 -237 0
-114 -1 229 0
-114 1 -229 0
-119 -1 229 0
-119 1 -229 0
-68 238 -230 0
-68 239 -230 0
-68 -238 -239 230 0
-69 -238 230 0
-69 -239 230 0
-69 238 239 -230 0
-70 -238 -239 -230 0
-70 -238 239 230 0
-70 238 -239 230 0
-70 238 239 -230 0
-71 238 230 0
-71 239 230 0
-71 -238 -239 -230 0
-72 -238 -230 0
-72 -239 -230 0
-72 238 239 230 0
-73 -238 -239 230 0
-73 -238 239 -230 0
-73 238 -239 -230 0
-73 238 239 230 0
-74 -1 238 0
-74 1 -238 0
-75 -1 238 0
-75 1 -238 0
-76 -1 238 0
-76 1 -238 0
-77 -227 238 0
-77 227 -238 0
-78 -228 238 0
-78 228 -238 0
-79 -229 238 0
-79 229 -238 0
-80 -230 238 0
-80 230 -238 0
-81 -231 238 0
-81 231 -238 0
-82 -1 239 0
-82 1 -239 0
-83 -1 239 0
-83 1 -239 0
-84 -1 239 0
-84 1 -239 0
-85 -227 239 0
-85 227 -239 0
-86 -228 239 0
-86 228 -239 0
-87 -229 239 0
-87 229 -239 0
-88 -230 239 0
-88 230 -239 0
-89 -231 239 0
-89 231 -239 0
-115 -1 230 0
-115 1 -230 0
-120 -1 230 0
-120 1 -230 0
-90 240 -231 0
-90 241 -231 0
-90 -240 -241 231 0
-91 -240 231 0
-91 -241 231 0
-91 240 241 -231 0
-92 -240 -241 -231 0
-92 -240 241 231 0
-92 240 -241 231 0
-92 240 241 -231 0
-93 240 231 0
-93 241 231 0
-93 -240 -241 -231 0
-94 -240 -231 0
-94 -241 -231 0
-94 240 241 231 0
-95 -240 -241 231 0
-95 -240 241 -231 0
-95 240 -241 -231 0
-95 240 241 231 0
-96 -1 240 0
-96 1 -240 0
-97 -1 240 0
-97 1 -240 0
-98 -1 240 0
-98 1 -240 0
-99 -227 240 0
-99 227 -240 0
-100 -228 240 0
-100 228 -240 0
-101 -229 240 0
-101 229 -240 0
-102 -230 240 0
-102 230 -240 0
-103 -231 240 0
-103 231 -240 0
-104 -1 241 0
-104 1 -241 0
-105 -1 241 0
-105 1 -241 0
-106 -1 241 0
-106 1 -241 0
-107 -227 241 0
-107 227 -241 0
-108 -228 241 0
-108 228 -241 0
-109 -229 241 0
-109 229 -241 0
-110 -230 241 0
-110 230 -241 0
-111 -231 241 0
-111 231 -241 0
-116 -1 231 0
-116 1 -231 0
-121 -1 231 0
-121 1 -231 0
-11 0
-19 0
-12 0
-20 0
-13 0
-21 0
-14 0
-22 0
-15 0
-23 0
11 19 33 41 55 63 77 85 99 107 112 117 0
-34 0
-42 0
-35 0
-43 0
-36 0
-44 0
-37 0
-45 0
34 42 56 64 78 86 100 108 113 118 0
-57 0
-65 0
-58 0
-66 0
-59 0
-67 0
57 65 79 87 101 109 114 119 0
-80 0
-88 0
-81 0
-89 0
80 88 102 110 115 120 0
-103 0
-111 0
103 111 116 121 0
